400
[80,81,84,85,86,87,88,89,90,91,93,95,97,98,99,100,101,102,104,105,107,108,109,110,112,114,115,116,118,119,120,121,122,123,125,126,127,128,129,133,134,135,136,137,138,139,140,141,142,143,144,145,146,147,148,149,150,151,152,154,155,156,157,160,161,162,163,164,165,166,167,168,170,173,175,176,177,179,181,182,183,184,185,186,187,188,189,190,192,194,195,196,197,200,201,202,203,204,205,206,208,209,210,211,212,213,214,215,217,218,219,220,221,222,223,224,225,226,227,229,231,232,233,235,236,237,238,239,240,241,242,244,246,247,248,249,250,251,252,253,254,255,256,257,258,259,260,262,263,264,267,270,273,274,275,276,278,279,280,282,283,284,285,286,287,289,290,291,292,293,294,295,296,297,298,299,301,302,303,304,306,307,308,309,310,311,312,313,315,317,318,319,320]
[3,4,2,2,3,1,1,4,1,2,6,1,1,3,1,1,1,2,3,4,1,1,1,2,3,1,2,2,2,2,3,1,2,1,1,2,1,2,2,1,2,1,2,3,1,3,2,2,1,2,2,2,2,1,1,2,4,2,1,2,2,2,4,1,3,3,3,2,2,3,2,2,4,2,2,1,1,3,2,1,1,4,2,3,2,2,2,1,3,1,3,1,3,1,2,1,6,4,1,1,1,4,3,3,1,3,1,2,1,2,1,1,2,1,3,3,1,2,1,5,1,3,1,3,3,3,1,3,2,1,3,2,7,1,1,3,1,1,1,3,2,3,1,1,1,2,2,2,5,1,2,2,1,2,1,1,2,2,3,2,2,1,2,1,3,1,1,2,3,1,3,2,3,1,5,2,2,3,1,1,1,3,1,2,3,2,5,3,2,3,3,1,2]
